p cnf 386 460
13 14 9 21 22 0
13 14 9 21 -22 0
13 14 9 -21 23 0
13 14 9 -21 -23 0
5 -10 -18 24 25 0
5 -10 -18 24 -25 0
5 -10 -18 -24 26 0
5 -10 -18 -24 -26 0
-18 -1 -7 27 28 0
-18 -1 -7 27 -28 0
-18 -1 -7 -27 29 0
-18 -1 -7 -27 -29 0
20 -19 -10 30 31 0
20 -19 -10 30 -31 0
20 -19 -10 -30 32 0
20 -19 -10 -30 -32 0
-8 -1 18 33 34 0
-8 -1 18 33 -34 0
-8 -1 18 -33 35 0
-8 -1 18 -33 -35 0
17 6 19 36 37 0
17 6 19 36 -37 0
17 6 19 -36 38 0
17 6 19 -36 -38 0
6 -14 13 39 40 0
6 -14 13 39 -40 0
6 -14 13 -39 41 0
6 -14 13 -39 -41 0
16 -18 7 42 43 0
16 -18 7 42 -43 0
16 -18 7 -42 44 0
16 -18 7 -42 -44 0
18 16 4 45 46 0
18 16 4 45 -46 0
18 16 4 -45 47 0
18 16 4 -45 -47 0
6 8 -3 48 49 0
6 8 -3 48 -49 0
6 8 -3 -48 50 0
6 8 -3 -48 -50 0
8 19 20 51 52 0
8 19 20 51 -52 0
8 19 20 -51 53 0
8 19 20 -51 -53 0
10 -9 3 54 55 0
10 -9 3 54 -55 0
10 -9 3 -54 56 0
10 -9 3 -54 -56 0
-8 7 -1 57 58 0
-8 7 -1 57 -58 0
-8 7 -1 -57 59 0
-8 7 -1 -57 -59 0
1 -6 -11 60 61 0
1 -6 -11 60 -61 0
1 -6 -11 -60 62 0
1 -6 -11 -60 -62 0
6 19 20 63 64 0
6 19 20 63 -64 0
6 19 20 -63 65 0
6 19 20 -63 -65 0
3 -10 1 66 67 0
3 -10 1 66 -67 0
3 -10 1 -66 68 0
3 -10 1 -66 -68 0
12 6 -14 69 70 0
12 6 -14 69 -70 0
12 6 -14 -69 71 0
12 6 -14 -69 -71 0
16 -9 -18 72 73 0
16 -9 -18 72 -73 0
16 -9 -18 -72 74 0
16 -9 -18 -72 -74 0
-11 -3 -4 75 76 0
-11 -3 -4 75 -76 0
-11 -3 -4 -75 77 0
-11 -3 -4 -75 -77 0
1 -13 -15 78 79 0
1 -13 -15 78 -79 0
1 -13 -15 -78 80 0
1 -13 -15 -78 -80 0
-12 -4 -16 81 82 0
-12 -4 -16 81 -82 0
-12 -4 -16 -81 83 0
-12 -4 -16 -81 -83 0
-6 -5 -10 84 85 0
-6 -5 -10 84 -85 0
-6 -5 -10 -84 86 0
-6 -5 -10 -84 -86 0
-16 -7 -1 87 88 0
-16 -7 -1 87 -88 0
-16 -7 -1 -87 89 0
-16 -7 -1 -87 -89 0
6 7 -20 90 91 0
6 7 -20 90 -91 0
6 7 -20 -90 92 0
6 7 -20 -90 -92 0
-4 -2 7 93 94 0
-4 -2 7 93 -94 0
-4 -2 7 -93 95 0
-4 -2 7 -93 -95 0
-15 -3 5 96 97 0
-15 -3 5 96 -97 0
-15 -3 5 -96 98 0
-15 -3 5 -96 -98 0
9 -2 -19 99 100 0
9 -2 -19 99 -100 0
9 -2 -19 -99 101 0
9 -2 -19 -99 -101 0
16 7 12 102 103 0
16 7 12 102 -103 0
16 7 12 -102 104 0
16 7 12 -102 -104 0
14 9 3 105 106 0
14 9 3 105 -106 0
14 9 3 -105 107 0
14 9 3 -105 -107 0
12 -10 -5 108 109 0
12 -10 -5 108 -109 0
12 -10 -5 -108 110 0
12 -10 -5 -108 -110 0
5 -16 -10 111 112 0
5 -16 -10 111 -112 0
5 -16 -10 -111 113 0
5 -16 -10 -111 -113 0
2 9 18 114 115 0
2 9 18 114 -115 0
2 9 18 -114 116 0
2 9 18 -114 -116 0
18 -15 20 117 118 0
18 -15 20 117 -118 0
18 -15 20 -117 119 0
18 -15 20 -117 -119 0
20 -6 -16 120 121 0
20 -6 -16 120 -121 0
20 -6 -16 -120 122 0
20 -6 -16 -120 -122 0
10 -8 -15 123 124 0
10 -8 -15 123 -124 0
10 -8 -15 -123 125 0
10 -8 -15 -123 -125 0
-15 -14 3 126 127 0
-15 -14 3 126 -127 0
-15 -14 3 -126 128 0
-15 -14 3 -126 -128 0
18 2 -20 129 130 0
18 2 -20 129 -130 0
18 2 -20 -129 131 0
18 2 -20 -129 -131 0
-4 5 20 132 133 0
-4 5 20 132 -133 0
-4 5 20 -132 134 0
-4 5 20 -132 -134 0
9 -7 1 135 136 0
9 -7 1 135 -136 0
9 -7 1 -135 137 0
9 -7 1 -135 -137 0
-15 10 -18 138 139 0
-15 10 -18 138 -139 0
-15 10 -18 -138 140 0
-15 10 -18 -138 -140 0
6 7 -19 141 142 0
6 7 -19 141 -142 0
6 7 -19 -141 143 0
6 7 -19 -141 -143 0
-5 4 -9 144 145 0
-5 4 -9 144 -145 0
-5 4 -9 -144 146 0
-5 4 -9 -144 -146 0
16 5 -12 147 148 0
16 5 -12 147 -148 0
16 5 -12 -147 149 0
16 5 -12 -147 -149 0
17 14 18 150 151 0
17 14 18 150 -151 0
17 14 18 -150 152 0
17 14 18 -150 -152 0
-18 20 -3 153 154 0
-18 20 -3 153 -154 0
-18 20 -3 -153 155 0
-18 20 -3 -153 -155 0
-16 -9 2 156 157 0
-16 -9 2 156 -157 0
-16 -9 2 -156 158 0
-16 -9 2 -156 -158 0
15 -1 -10 159 160 0
15 -1 -10 159 -160 0
15 -1 -10 -159 161 0
15 -1 -10 -159 -161 0
16 -6 15 162 163 0
16 -6 15 162 -163 0
16 -6 15 -162 164 0
16 -6 15 -162 -164 0
4 -11 17 165 166 0
4 -11 17 165 -166 0
4 -11 17 -165 167 0
4 -11 17 -165 -167 0
7 12 5 168 169 0
7 12 5 168 -169 0
7 12 5 -168 170 0
7 12 5 -168 -170 0
5 -18 -16 171 172 0
5 -18 -16 171 -172 0
5 -18 -16 -171 173 0
5 -18 -16 -171 -173 0
12 7 -1 174 175 0
12 7 -1 174 -175 0
12 7 -1 -174 176 0
12 7 -1 -174 -176 0
6 8 -13 177 178 0
6 8 -13 177 -178 0
6 8 -13 -177 179 0
6 8 -13 -177 -179 0
12 4 18 180 181 0
12 4 18 180 -181 0
12 4 18 -180 182 0
12 4 18 -180 -182 0
18 -15 -19 183 184 0
18 -15 -19 183 -184 0
18 -15 -19 -183 185 0
18 -15 -19 -183 -185 0
18 -4 -9 186 187 0
18 -4 -9 186 -187 0
18 -4 -9 -186 188 0
18 -4 -9 -186 -188 0
20 16 -6 189 190 0
20 16 -6 189 -190 0
20 16 -6 -189 191 0
20 16 -6 -189 -191 0
-9 -12 -3 192 193 0
-9 -12 -3 192 -193 0
-9 -12 -3 -192 194 0
-9 -12 -3 -192 -194 0
2 -3 17 195 196 0
2 -3 17 195 -196 0
2 -3 17 -195 197 0
2 -3 17 -195 -197 0
5 6 -15 198 199 0
5 6 -15 198 -199 0
5 6 -15 -198 200 0
5 6 -15 -198 -200 0
20 -5 -17 201 202 0
20 -5 -17 201 -202 0
20 -5 -17 -201 203 0
20 -5 -17 -201 -203 0
5 -13 -8 204 205 0
5 -13 -8 204 -205 0
5 -13 -8 -204 206 0
5 -13 -8 -204 -206 0
1 -3 6 207 208 0
1 -3 6 207 -208 0
1 -3 6 -207 209 0
1 -3 6 -207 -209 0
-3 15 -6 210 211 0
-3 15 -6 210 -211 0
-3 15 -6 -210 212 0
-3 15 -6 -210 -212 0
-20 7 3 213 214 0
-20 7 3 213 -214 0
-20 7 3 -213 215 0
-20 7 3 -213 -215 0
8 -10 14 216 217 0
8 -10 14 216 -217 0
8 -10 14 -216 218 0
8 -10 14 -216 -218 0
17 -3 -19 219 220 0
17 -3 -19 219 -220 0
17 -3 -19 -219 221 0
17 -3 -19 -219 -221 0
19 -14 15 222 223 0
19 -14 15 222 -223 0
19 -14 15 -222 224 0
19 -14 15 -222 -224 0
-7 -20 1 225 226 0
-7 -20 1 225 -226 0
-7 -20 1 -225 227 0
-7 -20 1 -225 -227 0
-10 -18 12 228 229 0
-10 -18 12 228 -229 0
-10 -18 12 -228 230 0
-10 -18 12 -228 -230 0
1 9 15 231 232 0
1 9 15 231 -232 0
1 9 15 -231 233 0
1 9 15 -231 -233 0
3 10 -20 234 235 0
3 10 -20 234 -235 0
3 10 -20 -234 236 0
3 10 -20 -234 -236 0
5 -15 -6 237 238 0
5 -15 -6 237 -238 0
5 -15 -6 -237 239 0
5 -15 -6 -237 -239 0
16 11 -14 240 241 0
16 11 -14 240 -241 0
16 11 -14 -240 242 0
16 11 -14 -240 -242 0
17 -7 6 243 244 0
17 -7 6 243 -244 0
17 -7 6 -243 245 0
17 -7 6 -243 -245 0
10 20 -13 246 247 0
10 20 -13 246 -247 0
10 20 -13 -246 248 0
10 20 -13 -246 -248 0
6 -7 9 249 250 0
6 -7 9 249 -250 0
6 -7 9 -249 251 0
6 -7 9 -249 -251 0
17 19 -5 252 253 0
17 19 -5 252 -253 0
17 19 -5 -252 254 0
17 19 -5 -252 -254 0
16 2 -7 255 256 0
16 2 -7 255 -256 0
16 2 -7 -255 257 0
16 2 -7 -255 -257 0
-5 -7 3 258 259 0
-5 -7 3 258 -259 0
-5 -7 3 -258 260 0
-5 -7 3 -258 -260 0
15 5 1 261 262 0
15 5 1 261 -262 0
15 5 1 -261 263 0
15 5 1 -261 -263 0
-7 -14 13 264 265 0
-7 -14 13 264 -265 0
-7 -14 13 -264 266 0
-7 -14 13 -264 -266 0
6 -16 -5 267 268 0
6 -16 -5 267 -268 0
6 -16 -5 -267 269 0
6 -16 -5 -267 -269 0
-6 14 13 270 271 0
-6 14 13 270 -271 0
-6 14 13 -270 272 0
-6 14 13 -270 -272 0
-9 -7 8 273 274 0
-9 -7 8 273 -274 0
-9 -7 8 -273 275 0
-9 -7 8 -273 -275 0
-12 -7 -13 276 277 0
-12 -7 -13 276 -277 0
-12 -7 -13 -276 278 0
-12 -7 -13 -276 -278 0
7 9 -10 279 280 0
7 9 -10 279 -280 0
7 9 -10 -279 281 0
7 9 -10 -279 -281 0
-7 4 -20 282 283 0
-7 4 -20 282 -283 0
-7 4 -20 -282 284 0
-7 4 -20 -282 -284 0
-3 15 16 285 286 0
-3 15 16 285 -286 0
-3 15 16 -285 287 0
-3 15 16 -285 -287 0
4 -13 15 288 289 0
4 -13 15 288 -289 0
4 -13 15 -288 290 0
4 -13 15 -288 -290 0
-13 -1 -19 291 292 0
-13 -1 -19 291 -292 0
-13 -1 -19 -291 293 0
-13 -1 -19 -291 -293 0
294 295 297 301 309 0
294 295 297 301 -309 0
294 295 297 -301 310 0
294 295 297 -301 -310 0
294 295 -297 302 311 0
294 295 -297 302 -311 0
294 295 -297 -302 312 0
294 295 -297 -302 -312 0
294 -295 298 303 313 0
294 -295 298 303 -313 0
294 -295 298 -303 314 0
294 -295 298 -303 -314 0
294 -295 -298 304 315 0
294 -295 -298 304 -315 0
294 -295 -298 -304 316 0
294 -295 -298 -304 -316 0
-294 296 299 305 317 0
-294 296 299 305 -317 0
-294 296 299 -305 318 0
-294 296 299 -305 -318 0
-294 296 -299 306 319 0
-294 296 -299 306 -319 0
-294 296 -299 -306 320 0
-294 296 -299 -306 -320 0
-294 -296 300 307 321 0
-294 -296 300 307 -321 0
-294 -296 300 -307 322 0
-294 -296 300 -307 -322 0
-294 -296 -300 308 323 0
-294 -296 -300 308 -323 0
-294 -296 -300 -308 324 0
-294 -296 -300 -308 -324 0
325 326 328 332 340 0
325 326 328 332 -340 0
325 326 328 -332 341 0
325 326 328 -332 -341 0
325 326 -328 333 342 0
325 326 -328 333 -342 0
325 326 -328 -333 343 0
325 326 -328 -333 -343 0
325 -326 329 334 344 0
325 -326 329 334 -344 0
325 -326 329 -334 345 0
325 -326 329 -334 -345 0
325 -326 -329 335 346 0
325 -326 -329 335 -346 0
325 -326 -329 -335 347 0
325 -326 -329 -335 -347 0
-325 327 330 336 348 0
-325 327 330 336 -348 0
-325 327 330 -336 349 0
-325 327 330 -336 -349 0
-325 327 -330 337 350 0
-325 327 -330 337 -350 0
-325 327 -330 -337 351 0
-325 327 -330 -337 -351 0
-325 -327 331 338 352 0
-325 -327 331 338 -352 0
-325 -327 331 -338 353 0
-325 -327 331 -338 -353 0
-325 -327 -331 339 354 0
-325 -327 -331 339 -354 0
-325 -327 -331 -339 355 0
-325 -327 -331 -339 -355 0
356 357 359 363 371 0
356 357 359 363 -371 0
356 357 359 -363 372 0
356 357 359 -363 -372 0
356 357 -359 364 373 0
356 357 -359 364 -373 0
356 357 -359 -364 374 0
356 357 -359 -364 -374 0
356 -357 360 365 375 0
356 -357 360 365 -375 0
356 -357 360 -365 376 0
356 -357 360 -365 -376 0
356 -357 -360 366 377 0
356 -357 -360 366 -377 0
356 -357 -360 -366 378 0
356 -357 -360 -366 -378 0
-356 358 361 367 379 0
-356 358 361 367 -379 0
-356 358 361 -367 380 0
-356 358 361 -367 -380 0
-356 358 -361 368 381 0
-356 358 -361 368 -381 0
-356 358 -361 -368 382 0
-356 358 -361 -368 -382 0
-356 -358 362 369 383 0
-356 -358 362 369 -383 0
-356 -358 362 -369 384 0
-356 -358 362 -369 -384 0
-356 -358 -362 370 385 0
-356 -358 -362 370 -385 0
-356 -358 -362 -370 386 0
-356 -358 -362 -370 -386 0

